# Solution for model GasLib-40
# Objective value = 5.7209117356608260e+01
loadshed[innode_1] 0
loadshed[innode_2] 0
loadshed[innode_3] 0
loadshed[innode_4] 0
loadshed[innode_5] 0
loadshed[innode_6] 0
loadshed[innode_7] 0
loadshed[innode_8] 0
loadshed[source_1] -9.9169997183415237e-02
loadshed[source_2] 6.0720048805215976e-02
loadshed[source_3] 4.0032620136958152e-01
loadshed[sink_1] 4.8841040633390731e-01
loadshed[sink_2] 0
loadshed[sink_3] 0
loadshed[sink_4] 0
loadshed[sink_5] 0
loadshed[sink_6] 0
loadshed[sink_7] 0
loadshed[sink_8] 0
loadshed[sink_9] 1.3315878701925954e-01
loadshed[sink_10] 0
loadshed[sink_11] 0
loadshed[sink_12] 1
loadshed[sink_13] 0
loadshed[sink_14] 0
loadshed[sink_15] 0
loadshed[sink_16] 0
loadshed[sink_17] 0
loadshed[sink_18] 0
loadshed[sink_19] 0
loadshed[sink_20] 0
loadshed[sink_21] 1
loadshed[sink_22] 0
loadshed[sink_23] 0
loadshed[sink_24] 8.7656791889803876e-01
loadshed[sink_25] 0
loadshed[sink_26] 0
loadshed[sink_27] 0
loadshed[sink_28] 0
loadshed[sink_29] 0
flow[source_1,sink_3] 1.7376809017972533e+02
flow[innode_1,sink_16] 1.6354166666666970e+01
flow[innode_6,sink_13] 1.9676569265142092e+01
flow[sink_13,sink_14] 3.3224025984754242e+00
flow[sink_14,sink_10] -1.3031764068191023e+01
flow[sink_25,sink_26] 1.1686427960747378e+02
flow[sink_26,sink_9] 0
flow[sink_9,sink_18] -1.4176465670622528e+01
flow[sink_26,sink_4] 100.510112940807
flow[sink_4,sink_20] -5.4884936369253069e+01
flow[sink_18,sink_6] -3.0530632337289198e+01
flow[sink_25,innode_8] -1.4105975684638898e+02
flow[sink_6,sink_7] -7.1605587150370042e+01
flow[sink_6,sink_22] 2.4720788146414225e+01
flow[sink_7,sink_24] 2.0186288263549916e+00
flow[sink_22,sink_1] 8.3666214797475575e+00
flow[sink_24,sink_21] 0
flow[sink_21,sink_12] 0
flow[sink_7,sink_5] -8.9978382643391683e+01
flow[sink_5,sink_17] -1.0633254931005835e+02
flow[sink_17,sink_4] -1.3904088264339336e+02
flow[sink_17,sink_8] 1.6354166666668334e+01
flow[sink_3,sink_23] 16.3541666666697
flow[sink_8,sink_20] 0
flow[sink_25,sink_20] 7.1239103035919555e+01
flow[sink_25,sink_15] -8.3074361728813074e+01
flow[sink_15,sink_29] -5.6268107548167343e+01
flow[sink_29,sink_28] 1.6354166666667879e+01
flow[sink_29,sink_2] 5.9514587513979052e+01
flow[sink_2,sink_15] 4.3160420847312388e+01
flow[sink_29,innode_7] -1.4849102839548095e+02
flow[innode_4,sink_19] 9.4802597401538023e+01
flow[sink_19,innode_3] 3.0301738765531386e+01
flow[innode_4,innode_5] 0
flow[sink_27,innode_5] 0
flow[sink_27,sink_19] -1.6354166666679703e+01
flow[sink_10,sink_11] 3.2708333333333641e+01
flow[sink_10,innode_2] -3.1792525302660266e+01
flow[sink_10,innode_3] -3.0301738765531386e+01
flow[innode_6,sink_25] -1.9676569265142092e+01
flow[sink_11,innode_1] 1.6354166666666970e+01
flow[sink_19,innode_2] 3.1792525302660266e+01
flow[source_3,innode_4] 9.4802597401538023e+01
flow[source_2,innode_7] 1.4849102839548095e+02
flow[sink_3,innode_8] 1.4105975684638898e+02
pressure[innode_1] 7.5340487643589640e+01
pressure[innode_2] 7.7172555220868759e+01
pressure[innode_3] 7.7105455451672171e+01
pressure[innode_4] 81.01325
pressure[innode_5] 7.6821425223725257e+01
pressure[innode_6] 7.4990224169821744e+01
pressure[innode_7] 81.01325
pressure[innode_8] 80.4324096563457
pressure[source_1] 81.01325
pressure[source_2] 81.01325
pressure[source_3] 81.01325
pressure[sink_1] 1.01325
pressure[sink_2] 7.5534125035341361e+01
pressure[sink_3] 80.4324096563457
pressure[sink_4] 5.3980425696573590e+01
pressure[sink_5] 4.0745735305224365e+01
pressure[sink_6] 2.3414555661416290e+00
pressure[sink_7] 3.32442959582937
pressure[sink_8] 4.8049656439667956e+01
pressure[sink_9] 1.01325
pressure[sink_10] 7.5492188951193185e+01
pressure[sink_11] 7.5340487643589640e+01
pressure[sink_12] 1.01325
pressure[sink_13] 7.4881750531723213e+01
pressure[sink_14] 7.4875804809267123e+01
pressure[sink_15] 7.5393215773678449e+01
pressure[sink_16] 7.4318837808771960e+01
pressure[sink_17] 4.8666741635081578e+01
pressure[sink_18] 1.5261967810975468e+00
pressure[sink_19] 7.7172555220868759e+01
pressure[sink_20] 5.8007039829647923e+01
pressure[sink_21] 1.01325
pressure[sink_22] 1.5574632232919174e+00
pressure[sink_23] 8.0267691644685911e+01
pressure[sink_24] 1.01325
pressure[sink_25] 7.4990224169821744e+01
pressure[sink_26] 6.6759541587652819e+01
pressure[sink_27] 7.6821425223725257e+01
pressure[sink_28] 7.6746414429739119e+01
pressure[sink_29] 77.0416967033563
interdiction[source_1,sink_3] 0
interdiction[innode_1,sink_16] 0
interdiction[innode_6,sink_13] 0
interdiction[sink_13,sink_14] 0
interdiction[sink_14,sink_10] 0
interdiction[sink_25,sink_26] 0
interdiction[sink_26,sink_9] 1
interdiction[sink_9,sink_18] 0
interdiction[sink_26,sink_4] 0
interdiction[sink_4,sink_20] 0
interdiction[sink_18,sink_6] 0
interdiction[sink_25,innode_8] 0
interdiction[sink_6,sink_7] 0
interdiction[sink_6,sink_22] 0
interdiction[sink_7,sink_24] 0
interdiction[sink_22,sink_1] 0
interdiction[sink_24,sink_21] 0
interdiction[sink_21,sink_12] 0
interdiction[sink_7,sink_5] 0
interdiction[sink_5,sink_17] 0
interdiction[sink_17,sink_4] 0
interdiction[sink_17,sink_8] 0
interdiction[sink_3,sink_23] 0
interdiction[sink_8,sink_20] 1
interdiction[sink_25,sink_20] 0
interdiction[sink_25,sink_15] 0
interdiction[sink_15,sink_29] 0
interdiction[sink_29,sink_28] 0
interdiction[sink_29,sink_2] 0
interdiction[sink_2,sink_15] 0
interdiction[sink_29,innode_7] 0
interdiction[innode_4,sink_19] 0
interdiction[sink_19,innode_3] 0
interdiction[innode_4,innode_5] 1
interdiction[sink_27,innode_5] 0
interdiction[sink_27,sink_19] 0
interdiction[sink_10,sink_11] 0
interdiction[sink_10,innode_2] 0
interdiction[sink_10,innode_3] 0
interdiction[innode_6,sink_25] 0
interdiction[sink_11,innode_1] 0
interdiction[sink_19,innode_2] 0
interdiction[source_3,innode_4] 0
interdiction[source_2,innode_7] 0
interdiction[sink_3,innode_8] 0
WCcheckFlow[source_1,sink_3] 39
WCcheckFlow[innode_1,sink_16] 1
WCcheckFlow[innode_6,sink_13] 13
WCcheckFlow[sink_13,sink_14] 12
WCcheckFlow[sink_14,sink_10] 11
WCcheckFlow[sink_25,sink_26] 15
WCcheckFlow[sink_26,sink_9] 0
WCcheckFlow[sink_9,sink_18] -1
WCcheckFlow[sink_26,sink_4] 14
WCcheckFlow[sink_4,sink_20] 1
WCcheckFlow[sink_18,sink_6] -2
WCcheckFlow[sink_25,innode_8] -36
WCcheckFlow[sink_6,sink_7] -5
WCcheckFlow[sink_6,sink_22] 2
WCcheckFlow[sink_7,sink_24] 3
WCcheckFlow[sink_22,sink_1] 1
WCcheckFlow[sink_24,sink_21] 2
WCcheckFlow[sink_21,sink_12] 1
WCcheckFlow[sink_7,sink_5] -9
WCcheckFlow[sink_5,sink_17] -10
WCcheckFlow[sink_17,sink_4] -12
WCcheckFlow[sink_17,sink_8] 1
WCcheckFlow[sink_3,sink_23] 1
WCcheckFlow[sink_8,sink_20] 0
WCcheckFlow[sink_25,sink_20] 0
WCcheckFlow[sink_25,sink_15] 6
WCcheckFlow[sink_15,sink_29] 5
WCcheckFlow[sink_29,sink_28] 1
WCcheckFlow[sink_29,sink_2] 1
WCcheckFlow[sink_2,sink_15] 0
WCcheckFlow[sink_29,innode_7] 2
WCcheckFlow[innode_4,sink_19] -2
WCcheckFlow[sink_19,innode_3] -5
WCcheckFlow[innode_4,innode_5] 0
WCcheckFlow[sink_27,innode_5] 1
WCcheckFlow[sink_27,sink_19] -2
WCcheckFlow[sink_10,sink_11] 3
WCcheckFlow[sink_10,innode_2] 1
WCcheckFlow[sink_10,innode_3] 6
WCcheckFlow[innode_6,sink_25] -14
WCcheckFlow[sink_11,innode_1] 2
WCcheckFlow[sink_19,innode_2] 0
WCcheckFlow[source_3,innode_4] -1
WCcheckFlow[source_2,innode_7] -1
WCcheckFlow[sink_3,innode_8] 37
